80 8
18 75
46 79
26 52
68 62
22 27
43 71
75 99
26 31
27 56
95 67
36 11
32 71
43 19
30 11
34 50
4 10
6 94
78 45
73 43
31 56
73 54
30 58
81 83
90 32
63 35
35 78
39 58
57 59
41 78
57 95
82 4
73 82
17 95
91 94
85 27
99 56
91 72
8 1
13 82
74 29
82 97
2 39
13 73
97 51
13 30
72 27
63 68
3 97
11 74
6 7
34 71
25 81
64 69
64 79
57 13
26 48
5 5
33 35
50 75
41 36
56 50
5 61
29 75
2 24
68 76
53 44
88 57
94 65
57 54
8 39
33 23
45 60
40 68
92 56
76 30
97 22
16 51
96 33
78 20
64 78
623 729
476 535
615 705
486 586
464 522
671 832
490 566
481 572
